letting n =  10
letting blocks =  [[1, 5], [2, 2], [2, 3], [2, 10], [3, 8], [3, 9], [3, 10], [4, 4], [4, 6], [5, 1], [5, 3], [6, 1], [6, 2], [6, 3], [6, 5], [6, 10], [7, 1], [7, 2], [7, 10], [8, 3], [8, 5], [8, 8], [9, 4], [9, 7], [9, 8], [10, 3], [10, 6], [10, 10]]
